{
  Items: [
    {
      Id: Guid_1,
      Org: ttd,
      Revision: Guid_2,
      ServiceResource: urn:altinn:resource:1337,
      ServiceResourceType: GenericAccessResource,
      Party: urn:altinn:person:identifier-no:06875895484,
      Progress: 22,
      Process: some-process,
      PrecedingProcess: some-preceding-process,
      GuiAttachmentCount: 1,
      ExtendedStatus: ext-status,
      ExternalReference: external-ref,
      CreatedAt: DateTimeOffset_1,
      UpdatedAt: DateTimeOffset_1,
      ContentUpdatedAt: DateTimeOffset_1,
      Status: NotApplicable,
      IsApiOnly: false,
      FromServiceOwnerTransmissionsCount: 1,
      HasUnopenedContent: true,
      LatestActivity: {
        Id: Guid_3,
        CreatedAt: DateTimeOffset_2,
        Type: DialogCreated,
        PerformedBy: {
          ActorType: ServiceOwner
        }
      },
      ServiceOwnerContext: {
        Revision: Guid_4,
        ServiceOwnerLabels: [
          {
            Value: some-label
          }
        ]
      },
      EndUserContext: {
        Revision: Guid_5,
        SystemLabels: [
          Default
        ]
      },
      Content: {
        Title: {
          Value: [
            {
              Value: Dette er en tittel, dialog,
              LanguageCode: nb
            }
          ],
          MediaType: text/plain
        },
        Summary: {
          Value: [
            {
              Value: Dette er et sammendrag, dialog,
              LanguageCode: nb
            }
          ],
          MediaType: text/plain
        }
      }
    },
    {
      Id: Guid_6,
      Org: ttd,
      Revision: Guid_7,
      ServiceResource: urn:altinn:resource:1337,
      ServiceResourceType: GenericAccessResource,
      Party: urn:altinn:person:identifier-no:06875895484,
      Progress: 22,
      Process: some-process,
      PrecedingProcess: some-preceding-process,
      GuiAttachmentCount: 1,
      ExtendedStatus: ext-status,
      ExternalReference: external-ref,
      CreatedAt: DateTimeOffset_3,
      UpdatedAt: DateTimeOffset_3,
      ContentUpdatedAt: DateTimeOffset_3,
      Status: NotApplicable,
      IsApiOnly: false,
      FromServiceOwnerTransmissionsCount: 1,
      HasUnopenedContent: true,
      LatestActivity: {
        Id: Guid_8,
        CreatedAt: DateTimeOffset_4,
        Type: DialogCreated,
        PerformedBy: {
          ActorType: ServiceOwner
        }
      },
      ServiceOwnerContext: {
        Revision: Guid_9
      },
      EndUserContext: {
        Revision: Guid_10,
        SystemLabels: [
          Archive
        ]
      },
      Content: {
        Title: {
          Value: [
            {
              Value: Dette er en tittel, dialog,
              LanguageCode: nb
            }
          ],
          MediaType: text/plain
        },
        Summary: {
          Value: [
            {
              Value: Dette er et sammendrag, dialog,
              LanguageCode: nb
            }
          ],
          MediaType: text/plain
        }
      }
    },
    {
      Id: Guid_11,
      Org: ttd,
      Revision: Guid_12,
      ServiceResource: urn:altinn:resource:1337,
      ServiceResourceType: GenericAccessResource,
      Party: urn:altinn:person:identifier-no:06875895484,
      Progress: 22,
      Process: some-process,
      PrecedingProcess: some-preceding-process,
      GuiAttachmentCount: 1,
      ExtendedStatus: ext-status,
      ExternalReference: external-ref,
      CreatedAt: DateTimeOffset_5,
      UpdatedAt: DateTimeOffset_5,
      ContentUpdatedAt: DateTimeOffset_5,
      Status: NotApplicable,
      IsApiOnly: false,
      HasUnopenedContent: false,
      LatestActivity: {
        Id: Guid_13,
        CreatedAt: DateTimeOffset_6,
        Type: DialogCreated,
        PerformedBy: {
          ActorType: ServiceOwner
        }
      },
      ServiceOwnerContext: {
        Revision: Guid_14
      },
      EndUserContext: {
        Revision: Guid_15,
        SystemLabels: [
          Default
        ]
      },
      Content: {
        Title: {
          Value: [
            {
              Value: Dette er en tittel, dialog,
              LanguageCode: nb
            }
          ],
          MediaType: text/plain
        },
        Summary: {
          Value: [
            {
              Value: Dette er et sammendrag, dialog,
              LanguageCode: nb
            }
          ],
          MediaType: text/plain
        }
      }
    },
    {
      Id: Guid_16,
      Org: ttd,
      Revision: Guid_17,
      ServiceResource: urn:altinn:resource:1337,
      ServiceResourceType: GenericAccessResource,
      Party: urn:altinn:person:identifier-no:06875895484,
      Progress: 22,
      Process: some-process,
      PrecedingProcess: some-preceding-process,
      GuiAttachmentCount: 0,
      ExtendedStatus: ext-status,
      ExternalReference: external-ref,
      CreatedAt: DateTimeOffset_7,
      UpdatedAt: DateTimeOffset_7,
      ContentUpdatedAt: DateTimeOffset_7,
      Status: NotApplicable,
      IsApiOnly: false,
      FromServiceOwnerTransmissionsCount: 1,
      HasUnopenedContent: true,
      LatestActivity: {
        Id: Guid_18,
        CreatedAt: DateTimeOffset_8,
        Type: DialogCreated,
        PerformedBy: {
          ActorType: ServiceOwner
        }
      },
      ServiceOwnerContext: {
        Revision: Guid_19
      },
      EndUserContext: {
        Revision: Guid_20,
        SystemLabels: [
          Default
        ]
      },
      Content: {
        Title: {
          Value: [
            {
              Value: Dette er en tittel, dialog,
              LanguageCode: nb
            }
          ],
          MediaType: text/plain
        },
        Summary: {
          Value: [
            {
              Value: Dette er et sammendrag, dialog,
              LanguageCode: nb
            }
          ],
          MediaType: text/plain
        }
      }
    },
    {
      Id: Guid_21,
      Org: ttd,
      Revision: Guid_22,
      ServiceResource: urn:altinn:resource:1337,
      ServiceResourceType: GenericAccessResource,
      Party: urn:altinn:person:identifier-no:06875895484,
      Progress: 22,
      Process: some-process,
      PrecedingProcess: some-preceding-process,
      GuiAttachmentCount: 1,
      ExtendedStatus: ext-status,
      ExternalReference: external-ref,
      CreatedAt: DateTimeOffset_9,
      UpdatedAt: DateTimeOffset_9,
      ContentUpdatedAt: DateTimeOffset_9,
      Status: NotApplicable,
      IsApiOnly: false,
      FromServiceOwnerTransmissionsCount: 1,
      HasUnopenedContent: true,
      ServiceOwnerContext: {
        Revision: Guid_23
      },
      EndUserContext: {
        Revision: Guid_24,
        SystemLabels: [
          Default
        ]
      },
      Content: {
        Title: {
          Value: [
            {
              Value: Dette er en tittel, dialog,
              LanguageCode: nb
            }
          ],
          MediaType: text/plain
        },
        Summary: {
          Value: [
            {
              Value: Dette er et sammendrag, dialog,
              LanguageCode: nb
            }
          ],
          MediaType: text/plain
        }
      }
    }
  ],
  HasNextPage: false,
  OrderBy: createdat_desc,id_desc
}
